100
128
2
19
4
6
10
7
5
31
16
4
4
2
6
17
1
32
5
19
4
25
31
19
3
13
6
2
10
8
20
13
15
13
3
17
11
1
5
15
8
3
10
2
2
54
19
14
24
11
46
10
56
10
36
58
32
53
39
43
45
48
2
41
46
62
12
51
2
7
56
64
43
15
12
59
51
57
48
56
16
49
1
23
53
9
21
40
60
51
25
47
15
25
61
36
39
5
1
1
64
29